p cnf 166 416
a 20 22 25 28 2 4 7 10 16 18 38 41 129 138 60 159 1 15 35 54 46 50 59 66 0
d 110 1 15 0
d 55 46 50 0
d 122 35 54 0
d 146 59 66 0
d 3 2 0
d 5 4 0
d 6 2 4 0
d 8 7 0
d 9 2 4 7 0
d 11 10 0
d 12 2 4 7 10 0
d 13 1 2 4 7 10 0
d 14 1 2 4 7 10 0
d 17 16 0
d 19 16 18 0
d 21 20 0
d 23 22 0
d 24 20 22 0
d 26 25 0
d 27 20 22 25 0
d 29 28 0
d 30 20 22 25 28 0
d 31 16 18 20 22 25 28 0
d 32 15 16 18 20 22 25 28 0
d 33 15 16 18 20 22 25 28 0
d 34 1 2 4 7 10 15 16 18 20 22 25 28 0
d 36 18 0
d 37 16 18 0
d 39 38 0
d 40 16 18 38 0
d 42 16 18 38 41 0
d 43 35 16 18 38 41 0
d 44 35 16 18 38 41 0
d 45 1 2 4 7 10 15 16 18 20 22 25 28 35 38 41 0
d 47 46 20 22 25 28 0
d 48 46 20 22 25 28 0
d 49 1 2 4 7 10 15 16 18 20 22 25 28 35 38 41 46 0
d 51 50 2 4 7 10 0
d 52 50 2 4 7 10 0
d 53 1 2 4 7 10 15 16 18 20 22 25 28 35 38 41 46 50 0
d 56 54 46 50 0
d 57 54 46 50 0
d 58 1 2 4 7 10 15 16 18 20 22 25 28 35 38 41 46 50 54 0
d 61 60 20 0
d 62 60 20 22 0
d 63 59 60 20 22 0
d 64 59 60 20 22 0
d 65 1 2 4 7 10 15 16 18 20 22 25 28 35 38 41 46 50 54 59 60 0
d 67 25 28 0
d 68 25 28 2 0
d 69 25 28 2 4 0
d 70 66 25 28 2 4 0
d 71 66 25 28 2 4 0
d 72 1 2 4 7 10 15 16 18 20 22 25 28 35 38 41 46 50 54 59 60 66 0
d 73 20 0
d 74 20 22 0
d 75 20 22 0
d 76 20 22 0
d 77 25 20 0
d 78 25 20 22 0
d 79 25 20 22 0
d 80 20 22 25 0
d 81 20 22 25 28 0
d 82 20 22 25 28 0
d 83 20 22 25 28 0
d 84 2 20 0
d 85 2 20 22 0
d 86 25 28 2 20 22 0
d 87 25 28 2 20 22 0
d 88 20 22 25 28 2 0
d 89 2 4 0
d 90 2 4 20 22 25 28 0
d 91 2 4 20 22 25 28 0
d 92 20 22 25 28 2 4 0
d 93 7 20 0
d 94 7 20 22 0
d 95 7 20 22 25 28 2 4 0
d 96 7 20 22 25 28 2 4 0
d 97 20 22 25 28 2 4 7 0
d 98 2 4 7 10 0
d 99 20 22 25 28 2 4 7 10 0
d 100 20 22 25 28 2 4 7 10 0
d 101 20 22 25 28 2 4 7 10 0
d 102 7 10 0
d 103 16 20 0
d 104 16 20 22 0
d 105 7 10 16 20 22 0
d 106 25 28 2 4 7 10 16 20 22 0
d 107 25 28 2 4 7 10 16 20 22 0
d 108 25 28 2 4 7 10 16 20 22 0
d 109 20 22 25 28 2 4 7 10 16 0
d 111 2 4 7 10 16 18 20 22 25 28 0
d 112 1 15 2 4 7 10 16 18 20 22 25 28 0
d 113 20 22 25 28 2 4 7 10 16 1 15 18 0
d 114 7 10 16 0
d 115 7 10 16 18 0
d 116 38 20 0
d 117 38 20 22 0
d 118 38 20 22 25 28 2 4 0
d 119 7 10 16 18 38 20 22 25 28 2 4 0
d 120 7 10 16 18 38 20 22 25 28 2 4 0
d 121 20 22 25 28 2 4 7 10 16 1 15 18 38 0
d 123 20 22 25 28 2 4 7 10 0
d 124 16 18 38 41 20 22 25 28 2 4 7 10 0
d 125 35 54 16 18 38 41 20 22 25 28 2 4 7 10 0
d 126 20 22 25 28 2 4 7 10 16 1 15 18 38 35 54 41 0
d 127 41 0
d 128 38 41 0
d 130 129 20 0
d 131 129 20 22 0
d 132 38 41 129 20 22 0
d 133 25 28 2 4 7 10 16 18 0
d 134 38 41 129 20 22 25 28 2 4 7 10 16 18 0
d 135 38 41 129 20 22 25 28 2 4 7 10 16 18 0
d 136 20 22 25 28 2 4 7 10 16 1 15 18 38 35 54 41 129 0
d 137 129 0
d 139 129 138 0
d 140 129 138 20 22 25 28 0
d 141 16 18 38 41 0
d 142 2 4 7 10 16 18 38 41 0
d 143 129 138 20 22 25 28 2 4 7 10 16 18 38 41 0
d 144 129 138 20 22 25 28 2 4 7 10 16 18 38 41 0
d 145 20 22 25 28 2 4 7 10 16 1 15 18 38 35 54 41 129 138 0
d 147 38 41 129 0
d 148 138 0
d 149 38 41 129 138 0
d 150 7 10 16 18 38 41 129 138 0
d 151 59 66 7 10 16 18 38 41 129 138 0
d 152 60 20 22 25 28 2 4 0
d 153 60 20 22 25 28 2 4 7 10 16 18 38 41 129 138 0
d 154 59 66 7 10 16 18 38 41 129 138 60 20 22 25 28 2 4 0
d 155 20 22 25 28 2 4 7 10 16 1 15 18 38 35 54 41 129 138 59 66 60 0
d 156 129 138 0
d 157 60 0
d 158 129 138 60 0
d 160 129 138 60 159 0
d 161 16 18 38 41 129 138 60 159 0
d 162 46 50 16 18 38 41 129 138 60 159 0
d 163 20 22 25 28 2 4 7 10 16 18 38 41 129 138 60 159 0
d 164 46 50 16 18 38 41 129 138 60 159 20 22 25 28 2 4 7 10 0
d 165 20 22 25 28 2 4 7 10 16 1 15 18 38 35 54 41 129 138 59 66 60 46 50 159 0
d 166 1 2 4 7 10 15 16 18 20 22 25 28 35 38 41 46 50 54 59 60 66 129 138 159 0
3 2 0
-3 -2 0
5 4 0
-5 -4 0
-6 3 0
-6 5 0
6 -3 -5 0
8 7 0
-8 -7 0
-9 6 0
-9 8 0
9 -6 -8 0
11 10 0
-11 -10 0
-12 9 0
-12 11 0
12 -9 -11 0
13 -1 -12 0
13 1 12 0
-13 -1 12 0
-13 1 -12 0
14 13 0
-14 -13 0
17 16 0
-17 -16 0
-19 17 0
-19 18 0
19 -17 -18 0
21 20 0
-21 -20 0
23 22 0
-23 -22 0
-24 21 0
-24 23 0
24 -21 -23 0
26 25 0
-26 -25 0
-27 24 0
-27 26 0
27 -24 -26 0
29 28 0
-29 -28 0
-30 27 0
-30 29 0
30 -27 -29 0
-31 19 0
-31 30 0
31 -19 -30 0
32 -15 -31 0
32 15 31 0
-32 -15 31 0
-32 15 -31 0
33 32 0
-33 -32 0
34 -14 0
34 -33 0
-34 14 33 0
36 18 0
-36 -18 0
-37 17 0
-37 36 0
37 -17 -36 0
39 38 0
-39 -38 0
-40 37 0
-40 39 0
40 -37 -39 0
-42 40 0
-42 41 0
42 -40 -41 0
43 -35 -42 0
43 35 42 0
-43 -35 42 0
-43 35 -42 0
44 43 0
-44 -43 0
45 -34 0
45 -44 0
-45 34 44 0
47 -46 -30 0
47 46 30 0
-47 -46 30 0
-47 46 -30 0
48 47 0
-48 -47 0
49 -45 0
49 -48 0
-49 45 48 0
51 -50 -12 0
51 50 12 0
-51 -50 12 0
-51 50 -12 0
52 51 0
-52 -51 0
53 -49 0
53 -52 0
-53 49 52 0
56 -54 -55 0
56 54 55 0
-56 -54 55 0
-56 54 -55 0
57 56 0
-57 -56 0
58 -53 0
58 -57 0
-58 53 57 0
-61 60 0
-61 21 0
61 -60 -21 0
-62 61 0
-62 23 0
62 -61 -23 0
63 -59 -62 0
63 59 62 0
-63 -59 62 0
-63 59 -62 0
64 63 0
-64 -63 0
65 -58 0
65 -64 0
-65 58 64 0
-67 26 0
-67 29 0
67 -26 -29 0
-68 67 0
-68 3 0
68 -67 -3 0
-69 68 0
-69 5 0
69 -68 -5 0
70 -66 -69 0
70 66 69 0
-70 -66 69 0
-70 66 -69 0
71 70 0
-71 -70 0
72 -65 0
72 -71 0
-72 65 71 0
73 -20 -20 0
73 20 20 0
-73 -20 20 0
-73 20 -20 0
-74 21 0
-74 22 0
74 -21 -22 0
75 -74 -74 0
75 74 74 0
-75 -74 74 0
-75 74 -74 0
-76 73 0
-76 75 0
76 -73 -75 0
-77 25 0
-77 21 0
77 -25 -21 0
-78 77 0
-78 23 0
78 -77 -23 0
79 -78 -78 0
79 78 78 0
-79 -78 78 0
-79 78 -78 0
-80 76 0
-80 79 0
80 -76 -79 0
-81 27 0
-81 28 0
81 -27 -28 0
82 -81 -81 0
82 81 81 0
-82 -81 81 0
-82 81 -81 0
-83 80 0
-83 82 0
83 -80 -82 0
-84 2 0
-84 21 0
84 -2 -21 0
-85 84 0
-85 23 0
85 -84 -23 0
-86 67 0
-86 85 0
86 -67 -85 0
87 -86 -86 0
87 86 86 0
-87 -86 86 0
-87 86 -86 0
-88 83 0
-88 87 0
88 -83 -87 0
-89 3 0
-89 4 0
89 -3 -4 0
-90 89 0
-90 30 0
90 -89 -30 0
91 -90 -90 0
91 90 90 0
-91 -90 90 0
-91 90 -90 0
-92 88 0
-92 91 0
92 -88 -91 0
-93 7 0
-93 21 0
93 -7 -21 0
-94 93 0
-94 23 0
94 -93 -23 0
-95 94 0
-95 69 0
95 -94 -69 0
96 -95 -95 0
96 95 95 0
-96 -95 95 0
-96 95 -95 0
-97 92 0
-97 96 0
97 -92 -96 0
-98 9 0
-98 10 0
98 -9 -10 0
-99 30 0
-99 98 0
99 -30 -98 0
100 -99 -99 0
100 99 99 0
-100 -99 99 0
-100 99 -99 0
-101 97 0
-101 100 0
101 -97 -100 0
-102 8 0
-102 11 0
102 -8 -11 0
-103 16 0
-103 21 0
103 -16 -21 0
-104 103 0
-104 23 0
104 -103 -23 0
-105 102 0
-105 104 0
105 -102 -104 0
106 -69 0
106 -105 0
-106 69 105 0
-107 69 0
-107 105 0
107 -69 -105 0
108 -106 -107 0
108 106 107 0
-108 -106 107 0
-108 106 -107 0
-109 101 0
-109 108 0
109 -101 -108 0
-111 12 0
-111 31 0
111 -12 -31 0
112 -110 -111 0
112 110 111 0
-112 -110 111 0
-112 110 -111 0
-113 109 0
-113 112 0
113 -109 -112 0
-114 102 0
-114 17 0
114 -102 -17 0
-115 114 0
-115 36 0
115 -114 -36 0
-116 38 0
-116 21 0
116 -38 -21 0
-117 116 0
-117 23 0
117 -116 -23 0
-118 117 0
-118 69 0
118 -117 -69 0
-119 115 0
-119 118 0
119 -115 -118 0
120 -119 -119 0
120 119 119 0
-120 -119 119 0
-120 119 -119 0
-121 113 0
-121 120 0
121 -113 -120 0
-123 30 0
-123 12 0
123 -30 -12 0
-124 42 0
-124 123 0
124 -42 -123 0
125 -122 -124 0
125 122 124 0
-125 -122 124 0
-125 122 -124 0
-126 121 0
-126 125 0
126 -121 -125 0
127 41 0
-127 -41 0
-128 39 0
-128 127 0
128 -39 -127 0
-130 129 0
-130 21 0
130 -129 -21 0
-131 130 0
-131 23 0
131 -130 -23 0
-132 128 0
-132 131 0
132 -128 -131 0
-133 69 0
-133 115 0
133 -69 -115 0
-134 132 0
-134 133 0
134 -132 -133 0
135 -134 -134 0
135 134 134 0
-135 -134 134 0
-135 134 -134 0
-136 126 0
-136 135 0
136 -126 -135 0
137 129 0
-137 -129 0
-139 137 0
-139 138 0
139 -137 -138 0
-140 139 0
-140 30 0
140 -139 -30 0
-141 40 0
-141 127 0
141 -40 -127 0
-142 12 0
-142 141 0
142 -12 -141 0
-143 140 0
-143 142 0
143 -140 -142 0
144 -143 -143 0
144 143 143 0
-144 -143 143 0
-144 143 -143 0
-145 136 0
-145 144 0
145 -136 -144 0
-147 128 0
-147 137 0
147 -128 -137 0
148 138 0
-148 -138 0
-149 147 0
-149 148 0
149 -147 -148 0
-150 115 0
-150 149 0
150 -115 -149 0
-151 146 0
-151 150 0
151 -146 -150 0
-152 62 0
-152 69 0
152 -62 -69 0
-153 152 0
-153 150 0
153 -152 -150 0
154 -151 -153 0
154 151 153 0
-154 -151 153 0
-154 151 -153 0
-155 145 0
-155 154 0
155 -145 -154 0
-156 137 0
-156 148 0
156 -137 -148 0
157 60 0
-157 -60 0
-158 156 0
-158 157 0
158 -156 -157 0
-160 158 0
-160 159 0
160 -158 -159 0
-161 141 0
-161 160 0
161 -141 -160 0
-162 55 0
-162 161 0
162 -55 -161 0
-163 123 0
-163 161 0
163 -123 -161 0
164 -162 -163 0
164 162 163 0
-164 -162 163 0
-164 162 -163 0
-165 155 0
-165 164 0
165 -155 -164 0
166 -72 0
166 -165 0
-166 72 165 0
166 0
